
Gurobi 13.0.0 (mac64[arm]) logging started Tue Jan 13 00:29:09 2026

Set parameter LogFile to value "/Users/philippstockerl/BachelorThesis/AutonomousVehicleRoutingDSS/Data/ShowCase2/BudgetedUncertainty/gurobi.log"
Set parameter DisplayInterval to value 1
Set parameter TimeLimit to value 60
Set parameter MIPGap to value 0.02
Gurobi Optimizer version 13.0.0 build v13.0.0rc1 (mac64[arm] - Darwin 24.6.0 24G222)

CPU model: Apple M2
Thread count: 8 physical cores, 8 logical processors, using up to 8 threads

Non-default parameters:
TimeLimit  60
MIPGap  0.02
DisplayInterval  1

Optimize a model with 49600 rows, 79201 columns and 198000 nonzeros (Min)
Model fingerprint: 0x407c7717
Model has 79201 linear objective coefficients
Variable types: 39601 continuous, 39600 integer (39600 binary)
Coefficient statistics:
  Matrix range     [3e-02, 1e+00]
  Objective range  [2e-04, 2e+01]
  Bounds range     [1e+00, 1e+00]
  RHS range        [1e+00, 1e+00]
Presolve time: 0.14s
Presolved: 49600 rows, 79201 columns, 198000 nonzeros
Variable types: 39601 continuous, 39600 integer (39600 binary)
Found heuristic solution: objective 71.1091958
Deterministic concurrent LP optimizer: primal and dual simplex
Showing primal log only...


Root simplex log...

Iteration    Objective       Primal Inf.    Dual Inf.      Time
   81211    3.9187355e+02   0.000000e+00   1.924293e+04      1s
Concurrent spin time: 0.49s (can be avoided by choosing Method=3)

Solved with dual simplex

Root simplex log...

Iteration    Objective       Primal Inf.    Dual Inf.      Time
    9156    4.7189352e+01   0.000000e+00   0.000000e+00      2s

Root relaxation: objective 4.718935e+01, 9156 iterations, 1.60 seconds (3.89 work units)

    Nodes    |    Current Node    |     Objective Bounds      |     Work
 Expl Unexpl |  Obj  Depth IntInf | Incumbent    BestBd   Gap | It/Node Time

     0     0   47.18935    0 1126   71.10920   47.18935  33.6%     -    2s
H    0     0                      61.5420648   47.18935  23.3%     -    2s
H    0     0                      61.5401607   47.18935  23.3%     -    2s
H    0     0                      61.5322600   47.18935  23.3%     -    2s
H    0     0                      61.5052457   47.18935  23.3%     -    2s
H    0     0                      61.0432653   47.18935  22.7%     -    2s
H    0     0                      61.0417633   47.18935  22.7%     -    2s
H    0     0                      60.9644820   47.18935  22.6%     -    2s
H    0     0                      60.8697381   47.18935  22.5%     -    2s
H    0     0                      60.8010524   47.18935  22.4%     -    2s
H    0     0                      60.7837635   47.18935  22.4%     -    2s
H    0     0                      60.7344868   47.18935  22.3%     -    2s
H    0     0                      60.7331561   47.18935  22.3%     -    2s
H    0     0                      60.6972878   47.18935  22.3%     -    2s
H    0     0                      60.6921895   47.18935  22.2%     -    2s
H    0     0                      60.6761678   47.18935  22.2%     -    2s
     0     0   48.21181    0 1103   60.67617   48.21181  20.5%     -   12s
H    0     0                      60.6692589   48.21181  20.5%     -   13s
     0     0   48.26685    0 1102   60.66926   48.26685  20.4%     -   13s
H    0     0                      60.4258453   48.36021  20.0%     -   15s
     0     0   48.50828    0 1179   60.42585   48.50828  19.7%     -   16s
H    0     0                      60.4175887   48.50828  19.7%     -   17s
     0     0   48.55444    0 1179   60.41759   48.55444  19.6%     -   17s
H    0     0                      60.4100461   48.55444  19.6%     -   17s
H    0     0                      60.3755803   48.55444  19.6%     -   17s
     0     0   48.56033    0 1173   60.37558   48.56033  19.6%     -   17s
     0     0   48.56465    0 1178   60.37558   48.56465  19.6%     -   17s
     0     0   48.56658    0 1178   60.37558   48.56658  19.6%     -   17s
     0     0   48.56658    0 1178   60.37558   48.56658  19.6%     -   17s
     0     0   48.56658    0 1178   60.37558   48.56658  19.6%     -   17s
     0     0   48.56799    0 1179   60.37558   48.56799  19.6%     -   17s
     0     0   48.57521    0 1179   60.37558   48.57521  19.5%     -   18s
     0     0   48.57787    0 1184   60.37558   48.57787  19.5%     -   18s
     0     0   48.57910    0 1187   60.37558   48.57910  19.5%     -   18s
     0     0   48.58064    0 1187   60.37558   48.58064  19.5%     -   18s
     0     0   48.69145    0 1207   60.37558   48.69145  19.4%     -   21s
     0     0   48.71789    0 1213   60.37558   48.71789  19.3%     -   22s
     0     0   48.72617    0 1203   60.37558   48.72617  19.3%     -   23s
     0     0   48.73264    0 1201   60.37558   48.73264  19.3%     -   23s
     0     0   48.73722    0 1213   60.37558   48.73722  19.3%     -   23s
     0     0   48.73772    0 1213   60.37558   48.73772  19.3%     -   23s
     0     0   48.73837    0 1217   60.37558   48.73837  19.3%     -   23s
     0     0   48.73899    0 1224   60.37558   48.73899  19.3%     -   23s
     0     0   48.73984    0 1216   60.37558   48.73984  19.3%     -   24s
     0     0   48.74356    0 1218   60.37558   48.74356  19.3%     -   24s
     0     0   48.74563    0 1216   60.37558   48.74563  19.3%     -   24s
     0     0   48.84752    0 1218   60.37558   48.84752  19.1%     -   39s
H    0     0                      60.3670402   48.84752  19.1%     -   40s
H    0     0                      60.3570770   48.84752  19.1%     -   40s
H    0     0                      60.3425432   48.84752  19.0%     -   40s
H    0     0                      60.3331652   48.84752  19.0%     -   40s
H    0     0                      60.3128963   48.84752  19.0%     -   40s
H    0     0                      60.3074345   48.84752  19.0%     -   40s
     0     0   48.85014    0 1219   60.30743   48.85014  19.0%     -   40s
     0     0   48.86294    0 1211   60.30743   48.86294  19.0%     -   41s
H    0     0                      60.2905817   48.86294  19.0%     -   41s
     0     0   48.88444    0 1217   60.29058   48.88444  18.9%     -   41s
     0     0   48.89018    0 1217   60.29058   48.89018  18.9%     -   41s
     0     0   48.89348    0 1218   60.29058   48.89348  18.9%     -   41s
     0     0   48.89922    0 1218   60.29058   48.89922  18.9%     -   41s
     0     0   48.90617    0 1227   60.29058   48.90617  18.9%     -   41s
     0     0   48.90630    0 1224   60.29058   48.90630  18.9%     -   41s
     0     0   48.90630    0 1224   60.29058   48.90630  18.9%     -   41s
     0     0   48.93061    0 1230   60.29058   48.93061  18.8%     -   42s
     0     0   48.93299    0 1230   60.29058   48.93299  18.8%     -   42s
H    0     0                      60.2856371   48.93299  18.8%     -   44s
H    0     0                      60.2746607   48.93299  18.8%     -   45s
H    0     0                      60.2683413   48.93299  18.8%     -   45s
H    0     0                      60.2629864   48.93299  18.8%     -   45s
H    0     0                      60.2615922   48.93299  18.8%     -   45s
     0     2   48.93299    0 1230   60.26159   48.93299  18.8%     -   45s
     1     4   48.93299    1 1215   60.26159   48.93299  18.8%  55.0   46s
     3     8   48.93299    2 1279   60.26159   48.93299  18.8%   693   47s
     7    16   48.93299    3 1306   60.26159   48.93299  18.8%   962   50s
    15    24   48.93299    4 1287   60.26159   48.93299  18.8%  1179   51s
    23    32   48.93299    5 1233   60.26159   48.93299  18.8%  1063   53s
H   28    32                      60.2578884   48.93299  18.8%   944   53s
    31    40   48.93299    6 1236   60.25789   48.93299  18.8%   936   55s
    39    48   48.93299    6 1227   60.25789   48.93299  18.8%   849   58s
    47    52   49.26974    8 1089   60.25789   48.93299  18.8%   789   60s

Cutting planes:
  Gomory: 12
  Lift-and-project: 10
  Implied bound: 2
  MIR: 23
  Flow cover: 910
  RLT: 1058

Explored 51 nodes (55214 simplex iterations) in 60.07 seconds (79.93 work units)
Thread count was 8 (of 8 available processors)

Solution count 10: 60.2579 60.2616 60.2683 ... 60.3425

Time limit reached
Best objective 6.025788842631e+01, best bound 4.893298632692e+01, gap 18.7941%
